750
120 120
1 84 364
2 84 33
3 84 1
4 84 456
5 84 24
6 84 163
7 84 83
8 84 172
9 84 15
10 83 972
11 83 993
12 83 885
13 83 377
14 83 300
15 83 777
16 83 145
17 83 261
18 83 455
19 82 824
20 82 533
21 82 808
22 82 136
23 82 388
24 82 495
25 82 150
26 82 3
27 82 577
28 82 791
29 82 813
30 81 637
31 81 294
32 81 482
33 81 534
34 81 829
35 81 878
36 81 411
37 81 912
38 81 883
39 81 86
40 81 334
41 81 109
42 81 892
43 81 244
44 80 538
45 80 748
46 80 459
47 80 353
48 80 320
49 80 992
50 80 770
51 80 745
52 80 276
53 80 217
54 80 949
55 80 550
56 80 888
57 80 335
58 79 762
59 79 905
60 79 550
61 79 888
62 79 769
63 79 25
64 79 763
65 79 356
66 79 651
67 79 469
68 78 63
69 78 359
70 78 298
71 78 657
72 78 373
73 78 855
74 78 269
75 78 510
76 78 533
77 77 567
78 77 540
79 77 847
80 77 523
81 77 693
82 77 288
83 77 745
84 77 18
85 77 716
86 77 701
87 77 234
88 77 218
89 77 938
90 76 910
91 76 460
92 76 573
93 76 501
94 76 583
95 76 758
96 76 19
97 76 277
98 76 717
99 76 478
100 76 31
101 75 881
102 75 765
103 75 685
104 75 348
105 75 794
106 75 884
107 75 454
108 75 480
109 75 308
110 75 709
111 75 146
112 75 55
113 75 305
114 74 567
115 74 961
116 74 705
117 74 637
118 74 334
119 74 627
120 74 231
121 74 326
122 74 811
123 74 900
124 74 243
125 74 902
126 74 11
127 74 77
128 74 144
129 73 748
130 73 356
131 73 882
132 73 496
133 73 618
134 73 619
135 73 415
136 73 413
137 73 540
138 73 619
139 73 165
140 73 369
141 73 198
142 73 891
143 73 249
144 73 439
145 72 22
146 72 59
147 72 503
148 72 469
149 72 921
150 72 947
151 72 63
152 72 383
153 72 742
154 72 497
155 71 893
156 71 324
157 71 347
158 71 390
159 71 805
160 71 824
161 71 900
162 71 161
163 71 375
164 71 584
165 71 429
166 71 608
167 71 929
168 71 697
169 71 714
170 71 264
171 71 925
172 71 250
173 70 91
174 70 58
175 70 628
176 70 403
177 70 714
178 70 386
179 70 720
180 70 629
181 70 784
182 70 326
183 69 922
184 69 387
185 69 815
186 69 941
187 69 474
188 69 580
189 69 202
190 69 345
191 69 825
192 69 496
193 69 335
194 69 323
195 69 980
196 69 387
197 69 777
198 68 321
199 68 294
200 68 586
201 68 717
202 68 185
203 68 58
204 68 124
205 68 767
206 68 569
207 67 915
208 67 390
209 67 226
210 67 348
211 67 651
212 67 556
213 67 231
214 67 817
215 67 775
216 66 97
217 66 816
218 66 59
219 66 84
220 66 637
221 66 807
222 66 52
223 66 952
224 66 630
225 66 324
226 66 272
227 65 465
228 65 741
229 65 809
230 65 298
231 65 96
232 65 465
233 65 928
234 65 689
235 65 757
236 65 541
237 65 767
238 65 33
239 64 157
240 64 391
241 64 376
242 64 583
243 64 965
244 64 867
245 64 288
246 64 617
247 64 568
248 64 178
249 64 530
250 64 881
251 64 883
252 64 609
253 64 662
254 64 972
255 64 701
256 64 882
257 64 549
258 63 536
259 63 304
260 63 326
261 63 590
262 63 309
263 63 135
264 63 563
265 63 962
266 63 673
267 63 430
268 63 82
269 63 548
270 62 931
271 62 896
272 62 171
273 62 32
274 62 669
275 62 338
276 62 165
277 62 384
278 62 116
279 62 807
280 61 276
281 61 819
282 61 2
283 61 217
284 61 242
285 61 196
286 61 123
287 61 98
288 61 741
289 60 971
290 60 276
291 60 500
292 60 301
293 60 53
294 60 501
295 60 425
296 60 672
297 60 768
298 60 906
299 60 360
300 60 747
301 59 557
302 59 596
303 59 475
304 59 194
305 59 464
306 59 738
307 59 910
308 59 699
309 59 18
310 58 579
311 58 357
312 58 22
313 58 806
314 58 240
315 58 675
316 58 698
317 58 618
318 58 136
319 58 431
320 58 436
321 58 205
322 58 450
323 58 691
324 57 941
325 57 483
326 57 928
327 57 868
328 57 807
329 57 98
330 57 966
331 57 839
332 56 426
333 56 303
334 56 554
335 56 617
336 56 460
337 56 996
338 56 142
339 55 3
340 55 950
341 55 132
342 55 866
343 55 903
344 55 446
345 55 905
346 55 733
347 55 470
348 55 992
349 55 924
350 55 749
351 55 156
352 55 74
353 54 522
354 54 674
355 54 627
356 54 225
357 54 181
358 54 73
359 54 377
360 54 847
361 54 852
362 53 326
363 53 1000
364 53 574
365 53 607
366 53 143
367 53 770
368 53 910
369 53 949
370 53 645
371 53 295
372 53 533
373 53 915
374 52 57
375 52 32
376 52 423
377 52 256
378 52 848
379 52 52
380 52 110
381 52 418
382 52 976
383 52 739
384 52 954
385 52 422
386 52 35
387 52 228
388 52 582
389 51 589
390 51 955
391 51 926
392 51 479
393 51 115
394 51 661
395 51 875
396 51 759
397 51 782
398 51 655
399 51 764
400 50 368
401 50 151
402 50 656
403 50 969
404 50 270
405 50 866
406 50 290
407 50 209
408 50 55
409 50 219
410 50 410
411 50 694
412 50 221
413 50 603
414 50 141
415 50 530
416 50 304
417 50 352
418 50 676
419 49 413
420 49 286
421 49 263
422 49 746
423 49 358
424 49 185
425 49 90
426 49 164
427 49 793
428 49 500
429 49 102
430 49 626
431 49 195
432 49 891
433 49 942
434 49 824
435 49 75
436 48 305
437 48 43
438 48 269
439 48 230
440 48 700
441 48 948
442 48 455
443 48 422
444 48 211
445 48 506
446 48 992
447 48 320
448 48 607
449 48 299
450 48 996
451 47 417
452 47 850
453 47 700
454 47 497
455 47 703
456 47 890
457 47 803
458 47 783
459 47 788
460 47 903
461 47 691
462 47 184
463 47 304
464 46 783
465 46 647
466 46 879
467 46 35
468 46 377
469 46 241
470 46 244
471 46 579
472 46 195
473 46 315
474 46 782
475 46 67
476 46 497
477 46 933
478 46 96
479 45 90
480 45 242
481 45 14
482 45 48
483 45 280
484 45 878
485 45 637
486 45 214
487 44 222
488 44 725
489 44 242
490 44 623
491 44 846
492 44 604
493 44 288
494 44 29
495 44 454
496 44 80
497 43 289
498 43 194
499 43 1
500 43 818
501 43 756
502 43 307
503 43 216
504 43 837
505 43 746
506 43 903
507 43 411
508 43 171
509 43 153
510 42 938
511 42 84
512 42 195
513 42 233
514 42 476
515 42 145
516 42 339
517 42 511
518 42 916
519 42 956
520 42 530
521 42 639
522 42 892
523 41 909
524 41 167
525 41 668
526 41 831
527 41 546
528 41 750
529 41 380
530 41 808
531 41 884
532 41 186
533 41 947
534 41 815
535 41 503
536 41 922
537 40 628
538 40 178
539 40 466
540 40 522
541 40 507
542 40 135
543 40 288
544 40 228
545 40 92
546 40 351
547 40 22
548 40 311
549 40 217
550 40 290
551 39 928
552 39 594
553 39 34
554 39 472
555 39 547
556 39 762
557 39 80
558 39 754
559 39 873
560 39 908
561 39 749
562 39 88
563 39 579
564 39 945
565 38 678
566 38 352
567 38 776
568 38 618
569 38 376
570 38 517
571 38 353
572 38 487
573 38 847
574 38 541
575 38 96
576 38 634
577 38 628
578 37 359
579 37 241
580 37 637
581 37 76
582 37 467
583 37 312
584 37 870
585 37 273
586 37 352
587 37 816
588 37 984
589 37 256
590 36 357
591 36 96
592 36 428
593 36 241
594 36 202
595 36 520
596 36 831
597 36 87
598 36 799
599 36 845
600 36 79
601 35 574
602 35 228
603 35 937
604 35 447
605 35 648
606 35 426
607 35 308
608 35 189
609 35 599
610 34 528
611 34 477
612 34 981
613 34 344
614 34 319
615 34 138
616 34 705
617 34 538
618 34 448
619 34 173
620 34 64
621 34 926
622 34 162
623 34 256
624 34 38
625 34 605
626 34 550
627 34 588
628 34 85
629 34 418
630 33 68
631 33 475
632 33 668
633 33 49
634 33 446
635 33 502
636 33 52
637 33 363
638 32 756
639 32 733
640 32 513
641 32 148
642 32 69
643 32 536
644 32 520
645 32 810
646 32 876
647 32 180
648 32 872
649 32 568
650 31 837
651 31 75
652 31 107
653 31 870
654 31 728
655 31 38
656 31 874
657 31 529
658 31 602
659 31 965
660 30 908
661 30 815
662 30 358
663 30 497
664 30 826
665 30 565
666 30 478
667 30 734
668 30 364
669 30 346
670 29 930
671 29 12
672 29 520
673 29 847
674 29 609
675 29 683
676 29 771
677 29 992
678 29 295
679 29 212
680 29 71
681 29 460
682 29 910
683 29 650
684 29 819
685 28 736
686 28 179
687 28 817
688 28 582
689 28 700
690 28 693
691 28 678
692 28 862
693 28 373
694 28 633
695 28 864
696 28 905
697 28 99
698 28 277
699 28 798
700 27 104
701 27 587
702 27 679
703 27 923
704 27 765
705 27 951
706 27 580
707 27 498
708 27 736
709 27 755
710 26 535
711 26 372
712 26 604
713 26 12
714 26 399
715 26 660
716 26 342
717 26 703
718 26 926
719 26 799
720 26 294
721 26 530
722 25 922
723 25 477
724 25 386
725 25 221
726 25 717
727 25 754
728 25 110
729 25 818
730 25 188
731 25 359
732 25 884
733 25 552
734 25 116
735 25 14
736 25 964
737 24 437
738 24 254
739 24 35
740 24 156
741 24 34
742 24 359
743 24 420
744 24 776
745 24 879
746 24 18
747 24 194
748 24 625
749 24 230
750 24 802
